# Objective value = 1.9299999998059974e+02
cmax 1.9299999998059974e+02
x_1_1 0
x_1_2 1
x_2_1 0
x_2_2 1
x_3_1 1
x_3_2 0
x_4_1 0
x_4_2 1
x_5_1 0
x_5_2 1
t_1_1_1 0
t_1_1_2 0
t_1_1_3 0
t_1_1_4 0
t_1_2_1 0
t_1_2_2 7.3999999980599739e+01
t_1_2_3 1.4799999998059974e+02
t_1_2_4 1.8799999998059974e+02
t_2_1_1 0
t_2_1_2 0
t_2_1_3 0
t_2_2_1 0
t_2_2_2 68
t_2_2_3 161
t_3_1_1 0
t_3_1_2 18
t_3_1_3 74
t_3_1_4 1.7899999998059977e+02
t_3_2_1 0
t_3_2_2 0
t_3_2_3 0
t_3_2_4 0
t_4_1_1 0
t_4_1_2 0
t_4_1_3 0
t_4_1_4 0
t_4_2_1 1.7999999999999979e+01
t_4_2_2 68
t_4_2_3 81
t_4_2_4 161
t_5_1_1 0
t_5_1_2 0
t_5_1_3 0
t_5_2_1 0
t_5_2_2 64
a_1_1_1_3 0
a_1_1_1_1 0
a_1_1_2_1 0
a_1_1_2_2 0
a_1_1_3_1 0
a_1_1_3_2 0
a_1_1_4_4 0
a_1_1_4_3 0
a_1_2_1_1 1
a_1_2_1_2 0
a_1_2_2_3 0
a_1_2_2_1 1
a_1_2_3_1 1
a_1_2_3_2 0
a_1_2_4_4 1
a_1_2_4_3 0
a_2_1_1_2 0
a_2_1_1_4 0
a_2_1_2_1 0
a_2_1_2_2 0
a_2_1_3_3 0
a_2_1_3_1 0
a_2_2_1_2 1
a_2_2_1_4 0
a_2_2_2_3 1
a_2_2_2_1 0
a_2_2_3_1 0
a_2_2_3_2 1
a_3_1_1_4 1
a_3_1_1_3 0
a_3_1_2_1 1
a_3_1_2_2 0
a_3_1_3_2 0
a_3_1_3_4 1
a_3_1_4_3 1
a_3_1_4_1 0
a_3_2_1_2 0
a_3_2_1_4 0
a_3_2_2_1 0
a_3_2_2_2 0
a_3_2_3_4 0
a_3_2_3_3 0
a_3_2_4_3 0
a_3_2_4_1 0
a_4_1_1_1 0
a_4_1_1_2 0
a_4_1_2_4 0
a_4_1_2_3 0
a_4_1_3_1 0
a_4_1_3_2 0
a_4_1_4_3 0
a_4_1_4_1 0
a_4_2_1_4 1
a_4_2_1_3 0
a_4_2_2_1 0
a_4_2_2_2 1
a_4_2_3_1 0
a_4_2_3_2 1
a_4_2_4_3 1
a_4_2_4_1 0
a_5_1_1_3 0
a_5_1_1_1 0
a_5_1_2_2 0
a_5_1_2_4 0
a_5_1_3_4 0
a_5_1_3_3 0
a_5_2_1_3 1
a_5_2_1_1 0
a_5_2_2_1 0
a_5_2_2_0 1
B_1_1_1_2_1_1 0
B_1_1_1_2_1_2 0
B_1_1_1_2_1_3 0
B_1_1_1_2_2_1 0
B_1_1_1_2_2_2 0
B_1_1_1_2_2_3 0
B_1_1_1_3_1_1 0
B_1_1_1_3_1_2 1
B_1_1_1_3_1_3 0
B_1_1_1_3_1_4 1
B_1_1_1_3_2_1 0
B_1_1_1_3_2_2 1
B_1_1_1_3_2_3 0
B_1_1_1_3_2_4 1
B_1_1_1_4_1_1 1
B_1_1_1_4_1_2 0
B_1_1_1_4_1_3 0
B_1_1_1_4_1_4 1
B_1_1_1_4_2_1 0
B_1_1_1_4_2_2 0
B_1_1_1_4_2_3 0
B_1_1_1_4_2_4 0
B_1_1_1_5_1_1 0
B_1_1_1_5_1_2 0
B_1_1_1_5_1_3 0
B_1_1_1_5_2_1 0
B_1_1_1_5_2_2 0
B_1_1_2_2_1_1 0
B_1_1_2_2_1_2 0
B_1_1_2_2_1_3 0
B_1_1_2_2_2_1 0
B_1_1_2_2_2_2 0
B_1_1_2_2_2_3 1
B_1_1_2_3_1_1 0
B_1_1_2_3_1_2 1
B_1_1_2_3_1_3 0
B_1_1_2_3_1_4 0
B_1_1_2_3_2_1 0
B_1_1_2_3_2_2 0
B_1_1_2_3_2_3 0
B_1_1_2_3_2_4 0
B_1_1_2_4_1_1 0
B_1_1_2_4_1_2 0
B_1_1_2_4_1_3 0
B_1_1_2_4_1_4 1
B_1_1_2_4_2_1 0
B_1_1_2_4_2_2 0
B_1_1_2_4_2_3 0
B_1_1_2_4_2_4 0
B_1_1_2_5_1_1 0
B_1_1_2_5_1_2 1
B_1_1_2_5_1_3 0
B_1_1_2_5_2_1 0
B_1_1_2_5_2_2 0
B_1_1_3_2_1_1 0
B_1_1_3_2_1_2 0
B_1_1_3_2_1_3 0
B_1_1_3_2_2_1 0
B_1_1_3_2_2_2 0
B_1_1_3_2_2_3 0
B_1_1_3_3_1_1 0
B_1_1_3_3_1_2 0
B_1_1_3_3_1_3 0
B_1_1_3_3_1_4 0
B_1_1_3_3_2_1 0
B_1_1_3_3_2_2 0
B_1_1_3_3_2_3 0
B_1_1_3_3_2_4 0
B_1_1_3_4_1_1 0
B_1_1_3_4_1_2 0
B_1_1_3_4_1_3 0
B_1_1_3_4_1_4 0
B_1_1_3_4_2_1 0
B_1_1_3_4_2_2 0
B_1_1_3_4_2_3 0
B_1_1_3_4_2_4 1
B_1_1_3_5_1_1 0
B_1_1_3_5_1_2 0
B_1_1_3_5_1_3 0
B_1_1_3_5_2_1 0
B_1_1_3_5_2_2 0
B_1_1_4_2_1_1 0
B_1_1_4_2_1_2 0
B_1_1_4_2_1_3 0
B_1_1_4_2_2_1 0
B_1_1_4_2_2_2 0
B_1_1_4_2_2_3 0
B_1_1_4_3_1_1 0
B_1_1_4_3_1_2 0
B_1_1_4_3_1_3 1
B_1_1_4_3_1_4 0
B_1_1_4_3_2_1 0
B_1_1_4_3_2_2 0
B_1_1_4_3_2_3 0
B_1_1_4_3_2_4 0
B_1_1_4_4_1_1 0
B_1_1_4_4_1_2 0
B_1_1_4_4_1_3 0
B_1_1_4_4_1_4 0
B_1_1_4_4_2_1 0
B_1_1_4_4_2_2 0
B_1_1_4_4_2_3 0
B_1_1_4_4_2_4 0
B_1_1_4_5_1_1 0
B_1_1_4_5_1_2 0
B_1_1_4_5_1_3 0
B_1_1_4_5_2_1 0
B_1_1_4_5_2_2 0
B_1_2_1_2_1_1 0
B_1_2_1_2_1_2 0
B_1_2_1_2_1_3 0
B_1_2_1_2_2_1 1
B_1_2_1_2_2_2 1
B_1_2_1_2_2_3 1
B_1_2_1_3_1_1 0
B_1_2_1_3_1_2 1
B_1_2_1_3_1_3 0
B_1_2_1_3_1_4 0
B_1_2_1_3_2_1 1
B_1_2_1_3_2_2 1
B_1_2_1_3_2_3 0
B_1_2_1_3_2_4 1
B_1_2_1_4_1_1 0
B_1_2_1_4_1_2 0
B_1_2_1_4_1_3 0
B_1_2_1_4_1_4 0
B_1_2_1_4_2_1 0
B_1_2_1_4_2_2 1
B_1_2_1_4_2_3 1
B_1_2_1_4_2_4 1
B_1_2_1_5_1_1 0
B_1_2_1_5_1_2 1
B_1_2_1_5_1_3 0
B_1_2_1_5_2_1 0
B_1_2_1_5_2_2 1
B_1_2_2_2_1_1 0
B_1_2_2_2_1_2 1
B_1_2_2_2_1_3 0
B_1_2_2_2_2_1 0
B_1_2_2_2_2_2 0
B_1_2_2_2_2_3 1
B_1_2_2_3_1_1 0
B_1_2_2_3_1_2 0
B_1_2_2_3_1_3 0
B_1_2_2_3_1_4 0
B_1_2_2_3_2_1 0
B_1_2_2_3_2_2 0
B_1_2_2_3_2_3 0
B_1_2_2_3_2_4 0
B_1_2_2_4_1_1 0
B_1_2_2_4_1_2 0
B_1_2_2_4_1_3 0
B_1_2_2_4_1_4 0
B_1_2_2_4_2_1 1
B_1_2_2_4_2_2 0
B_1_2_2_4_2_3 0
B_1_2_2_4_2_4 1
B_1_2_2_5_1_1 0
B_1_2_2_5_1_2 0
B_1_2_2_5_1_3 0
B_1_2_2_5_2_1 0
B_1_2_2_5_2_2 0
B_1_2_3_2_1_1 0
B_1_2_3_2_1_2 0
B_1_2_3_2_1_3 0
B_1_2_3_2_2_1 0
B_1_2_3_2_2_2 0
B_1_2_3_2_2_3 0
B_1_2_3_3_1_1 0
B_1_2_3_3_1_2 0
B_1_2_3_3_1_3 0
B_1_2_3_3_1_4 0
B_1_2_3_3_2_1 0
B_1_2_3_3_2_2 0
B_1_2_3_3_2_3 0
B_1_2_3_3_2_4 1
B_1_2_3_4_1_1 0
B_1_2_3_4_1_2 0
B_1_2_3_4_1_3 0
B_1_2_3_4_1_4 1
B_1_2_3_4_2_1 0
B_1_2_3_4_2_2 0
B_1_2_3_4_2_3 0
B_1_2_3_4_2_4 0
B_1_2_3_5_1_1 0
B_1_2_3_5_1_2 0
B_1_2_3_5_1_3 0
B_1_2_3_5_2_1 0
B_1_2_3_5_2_2 0
B_1_2_4_2_1_1 0
B_1_2_4_2_1_2 0
B_1_2_4_2_1_3 0
B_1_2_4_2_2_1 0
B_1_2_4_2_2_2 0
B_1_2_4_2_2_3 0
B_1_2_4_3_1_1 0
B_1_2_4_3_1_2 0
B_1_2_4_3_1_3 0
B_1_2_4_3_1_4 0
B_1_2_4_3_2_1 0
B_1_2_4_3_2_2 0
B_1_2_4_3_2_3 0
B_1_2_4_3_2_4 1
B_1_2_4_4_1_1 0
B_1_2_4_4_1_2 0
B_1_2_4_4_1_3 0
B_1_2_4_4_1_4 0
B_1_2_4_4_2_1 0
B_1_2_4_4_2_2 0
B_1_2_4_4_2_3 0
B_1_2_4_4_2_4 1
B_1_2_4_5_1_1 0
B_1_2_4_5_1_2 0
B_1_2_4_5_1_3 0
B_1_2_4_5_2_1 0
B_1_2_4_5_2_2 0
B_2_1_1_1_1_1 0
B_2_1_1_1_1_2 0
B_2_1_1_1_1_3 0
B_2_1_1_1_1_4 0
B_2_1_1_1_2_1 0
B_2_1_1_1_2_2 0
B_2_1_1_1_2_3 0
B_2_1_1_1_2_4 0
B_2_1_1_3_1_1 0
B_2_1_1_3_1_2 1
B_2_1_1_3_1_3 1
B_2_1_1_3_1_4 0
B_2_1_1_3_2_1 0
B_2_1_1_3_2_2 1
B_2_1_1_3_2_3 1
B_2_1_1_3_2_4 0
B_2_1_1_4_1_1 0
B_2_1_1_4_1_2 0
B_2_1_1_4_1_3 1
B_2_1_1_4_1_4 0
B_2_1_1_4_2_1 0
B_2_1_1_4_2_2 0
B_2_1_1_4_2_3 1
B_2_1_1_4_2_4 0
B_2_1_1_5_1_1 0
B_2_1_1_5_1_2 1
B_2_1_1_5_1_3 0
B_2_1_1_5_2_1 0
B_2_1_1_5_2_2 0
B_2_1_2_1_1_1 0
B_2_1_2_1_1_2 0
B_2_1_2_1_1_3 0
B_2_1_2_1_1_4 0
B_2_1_2_1_2_1 0
B_2_1_2_1_2_2 0
B_2_1_2_1_2_3 0
B_2_1_2_1_2_4 0
B_2_1_2_3_1_1 0
B_2_1_2_3_1_2 0
B_2_1_2_3_1_3 0
B_2_1_2_3_1_4 0
B_2_1_2_3_2_1 0
B_2_1_2_3_2_2 0
B_2_1_2_3_2_3 0
B_2_1_2_3_2_4 0
B_2_1_2_4_1_1 0
B_2_1_2_4_1_2 0
B_2_1_2_4_1_3 0
B_2_1_2_4_1_4 1
B_2_1_2_4_2_1 0
B_2_1_2_4_2_2 0
B_2_1_2_4_2_3 0
B_2_1_2_4_2_4 0
B_2_1_2_5_1_1 0
B_2_1_2_5_1_2 0
B_2_1_2_5_1_3 0
B_2_1_2_5_2_1 0
B_2_1_2_5_2_2 0
B_2_1_3_1_1_1 0
B_2_1_3_1_1_2 0
B_2_1_3_1_1_3 0
B_2_1_3_1_1_4 0
B_2_1_3_1_2_1 0
B_2_1_3_1_2_2 0
B_2_1_3_1_2_3 0
B_2_1_3_1_2_4 0
B_2_1_3_3_1_1 0
B_2_1_3_3_1_2 0
B_2_1_3_3_1_3 0
B_2_1_3_3_1_4 1
B_2_1_3_3_2_1 0
B_2_1_3_3_2_2 0
B_2_1_3_3_2_3 0
B_2_1_3_3_2_4 1
B_2_1_3_4_1_1 0
B_2_1_3_4_1_2 0
B_2_1_3_4_1_3 0
B_2_1_3_4_1_4 0
B_2_1_3_4_2_1 0
B_2_1_3_4_2_2 0
B_2_1_3_4_2_3 0
B_2_1_3_4_2_4 1
B_2_1_3_5_1_1 0
B_2_1_3_5_1_2 0
B_2_1_3_5_1_3 0
B_2_1_3_5_2_1 0
B_2_1_3_5_2_2 0
B_2_2_1_1_1_1 0
B_2_2_1_1_1_2 0
B_2_2_1_1_1_3 0
B_2_2_1_1_1_4 0
B_2_2_1_1_2_1 0
B_2_2_1_1_2_2 0
B_2_2_1_1_2_3 0
B_2_2_1_1_2_4 0
B_2_2_1_3_1_1 0
B_2_2_1_3_1_2 0
B_2_2_1_3_1_3 1
B_2_2_1_3_1_4 0
B_2_2_1_3_2_1 1
B_2_2_1_3_2_2 1
B_2_2_1_3_2_3 0
B_2_2_1_3_2_4 0
B_2_2_1_4_1_1 0
B_2_2_1_4_1_2 0
B_2_2_1_4_1_3 0
B_2_2_1_4_1_4 0
B_2_2_1_4_2_1 0
B_2_2_1_4_2_2 1
B_2_2_1_4_2_3 1
B_2_2_1_4_2_4 0
B_2_2_1_5_1_1 0
B_2_2_1_5_1_2 0
B_2_2_1_5_1_3 1
B_2_2_1_5_2_1 0
B_2_2_1_5_2_2 0
B_2_2_2_1_1_1 0
B_2_2_2_1_1_2 0
B_2_2_2_1_1_3 0
B_2_2_2_1_1_4 0
B_2_2_2_1_2_1 0
B_2_2_2_1_2_2 0
B_2_2_2_1_2_3 0
B_2_2_2_1_2_4 0
B_2_2_2_3_1_1 0
B_2_2_2_3_1_2 0
B_2_2_2_3_1_3 0
B_2_2_2_3_1_4 1
B_2_2_2_3_2_1 0
B_2_2_2_3_2_2 0
B_2_2_2_3_2_3 0
B_2_2_2_3_2_4 0
B_2_2_2_4_1_1 0
B_2_2_2_4_1_2 0
B_2_2_2_4_1_3 1
B_2_2_2_4_1_4 0
B_2_2_2_4_2_1 0
B_2_2_2_4_2_2 0
B_2_2_2_4_2_3 0
B_2_2_2_4_2_4 1
B_2_2_2_5_1_1 0
B_2_2_2_5_1_2 0
B_2_2_2_5_1_3 0
B_2_2_2_5_2_1 0
B_2_2_2_5_2_2 0
B_2_2_3_1_1_1 0
B_2_2_3_1_1_2 0
B_2_2_3_1_1_3 0
B_2_2_3_1_1_4 0
B_2_2_3_1_2_1 0
B_2_2_3_1_2_2 0
B_2_2_3_1_2_3 0
B_2_2_3_1_2_4 0
B_2_2_3_3_1_1 0
B_2_2_3_3_1_2 0
B_2_2_3_3_1_3 0
B_2_2_3_3_1_4 0
B_2_2_3_3_2_1 0
B_2_2_3_3_2_2 0
B_2_2_3_3_2_3 0
B_2_2_3_3_2_4 0
B_2_2_3_4_1_1 0
B_2_2_3_4_1_2 0
B_2_2_3_4_1_3 0
B_2_2_3_4_1_4 0
B_2_2_3_4_2_1 0
B_2_2_3_4_2_2 0
B_2_2_3_4_2_3 0
B_2_2_3_4_2_4 0
B_2_2_3_5_1_1 0
B_2_2_3_5_1_2 0
B_2_2_3_5_1_3 0
B_2_2_3_5_2_1 0
B_2_2_3_5_2_2 0
B_3_1_1_1_1_1 0
B_3_1_1_1_1_2 0
B_3_1_1_1_1_3 0
B_3_1_1_1_1_4 0
B_3_1_1_1_2_1 0
B_3_1_1_1_2_2 0
B_3_1_1_1_2_3 0
B_3_1_1_1_2_4 0
B_3_1_1_2_1_1 0
B_3_1_1_2_1_2 0
B_3_1_1_2_1_3 0
B_3_1_1_2_2_1 0
B_3_1_1_2_2_2 0
B_3_1_1_2_2_3 0
B_3_1_1_4_1_1 0
B_3_1_1_4_1_2 1
B_3_1_1_4_1_3 0
B_3_1_1_4_1_4 0
B_3_1_1_4_2_1 1
B_3_1_1_4_2_2 0
B_3_1_1_4_2_3 0
B_3_1_1_4_2_4 1
B_3_1_1_5_1_1 0
B_3_1_1_5_1_2 0
B_3_1_1_5_1_3 1
B_3_1_1_5_2_1 0
B_3_1_1_5_2_2 0
B_3_1_2_1_1_1 0
B_3_1_2_1_1_2 0
B_3_1_2_1_1_3 0
B_3_1_2_1_1_4 0
B_3_1_2_1_2_1 0
B_3_1_2_1_2_2 0
B_3_1_2_1_2_3 0
B_3_1_2_1_2_4 0
B_3_1_2_2_1_1 0
B_3_1_2_2_1_2 0
B_3_1_2_2_1_3 0
B_3_1_2_2_2_1 0
B_3_1_2_2_2_2 0
B_3_1_2_2_2_3 0
B_3_1_2_4_1_1 0
B_3_1_2_4_1_2 0
B_3_1_2_4_1_3 0
B_3_1_2_4_1_4 1
B_3_1_2_4_2_1 0
B_3_1_2_4_2_2 0
B_3_1_2_4_2_3 1
B_3_1_2_4_2_4 1
B_3_1_2_5_1_1 0
B_3_1_2_5_1_2 1
B_3_1_2_5_1_3 0
B_3_1_2_5_2_1 0
B_3_1_2_5_2_2 0
B_3_1_3_1_1_1 0
B_3_1_3_1_1_2 0
B_3_1_3_1_1_3 0
B_3_1_3_1_1_4 0
B_3_1_3_1_2_1 0
B_3_1_3_1_2_2 0
B_3_1_3_1_2_3 0
B_3_1_3_1_2_4 0
B_3_1_3_2_1_1 0
B_3_1_3_2_1_2 0
B_3_1_3_2_1_3 0
B_3_1_3_2_2_1 0
B_3_1_3_2_2_2 0
B_3_1_3_2_2_3 0
B_3_1_3_4_1_1 0
B_3_1_3_4_1_2 0
B_3_1_3_4_1_3 0
B_3_1_3_4_1_4 0
B_3_1_3_4_2_1 0
B_3_1_3_4_2_2 0
B_3_1_3_4_2_3 0
B_3_1_3_4_2_4 0
B_3_1_3_5_1_1 0
B_3_1_3_5_1_2 0
B_3_1_3_5_1_3 0
B_3_1_3_5_2_1 0
B_3_1_3_5_2_2 0
B_3_1_4_1_1_1 0
B_3_1_4_1_1_2 0
B_3_1_4_1_1_3 0
B_3_1_4_1_1_4 0
B_3_1_4_1_2_1 0
B_3_1_4_1_2_2 0
B_3_1_4_1_2_3 0
B_3_1_4_1_2_4 0
B_3_1_4_2_1_1 0
B_3_1_4_2_1_2 0
B_3_1_4_2_1_3 0
B_3_1_4_2_2_1 0
B_3_1_4_2_2_2 0
B_3_1_4_2_2_3 0
B_3_1_4_4_1_1 0
B_3_1_4_4_1_2 0
B_3_1_4_4_1_3 0
B_3_1_4_4_1_4 0
B_3_1_4_4_2_1 0
B_3_1_4_4_2_2 0
B_3_1_4_4_2_3 0
B_3_1_4_4_2_4 0
B_3_1_4_5_1_1 0
B_3_1_4_5_1_2 0
B_3_1_4_5_1_3 0
B_3_1_4_5_2_1 0
B_3_1_4_5_2_2 0
B_3_2_1_1_1_1 0
B_3_2_1_1_1_2 0
B_3_2_1_1_1_3 0
B_3_2_1_1_1_4 0
B_3_2_1_1_2_1 0
B_3_2_1_1_2_2 0
B_3_2_1_1_2_3 0
B_3_2_1_1_2_4 0
B_3_2_1_2_1_1 0
B_3_2_1_2_1_2 0
B_3_2_1_2_1_3 0
B_3_2_1_2_2_1 0
B_3_2_1_2_2_2 0
B_3_2_1_2_2_3 0
B_3_2_1_4_1_1 0
B_3_2_1_4_1_2 0
B_3_2_1_4_1_3 1
B_3_2_1_4_1_4 0
B_3_2_1_4_2_1 0
B_3_2_1_4_2_2 1
B_3_2_1_4_2_3 1
B_3_2_1_4_2_4 0
B_3_2_1_5_1_1 0
B_3_2_1_5_1_2 1
B_3_2_1_5_1_3 0
B_3_2_1_5_2_1 0
B_3_2_1_5_2_2 0
B_3_2_2_1_1_1 0
B_3_2_2_1_1_2 0
B_3_2_2_1_1_3 0
B_3_2_2_1_1_4 0
B_3_2_2_1_2_1 0
B_3_2_2_1_2_2 0
B_3_2_2_1_2_3 0
B_3_2_2_1_2_4 0
B_3_2_2_2_1_1 0
B_3_2_2_2_1_2 0
B_3_2_2_2_1_3 0
B_3_2_2_2_2_1 0
B_3_2_2_2_2_2 0
B_3_2_2_2_2_3 0
B_3_2_2_4_1_1 0
B_3_2_2_4_1_2 0
B_3_2_2_4_1_3 0
B_3_2_2_4_1_4 0
B_3_2_2_4_2_1 0
B_3_2_2_4_2_2 0
B_3_2_2_4_2_3 0
B_3_2_2_4_2_4 0
B_3_2_2_5_1_1 0
B_3_2_2_5_1_2 0
B_3_2_2_5_1_3 0
B_3_2_2_5_2_1 0
B_3_2_2_5_2_2 0
B_3_2_3_1_1_1 0
B_3_2_3_1_1_2 0
B_3_2_3_1_1_3 0
B_3_2_3_1_1_4 0
B_3_2_3_1_2_1 0
B_3_2_3_1_2_2 0
B_3_2_3_1_2_3 0
B_3_2_3_1_2_4 0
B_3_2_3_2_1_1 0
B_3_2_3_2_1_2 0
B_3_2_3_2_1_3 0
B_3_2_3_2_2_1 0
B_3_2_3_2_2_2 0
B_3_2_3_2_2_3 0
B_3_2_3_4_1_1 0
B_3_2_3_4_1_2 0
B_3_2_3_4_1_3 0
B_3_2_3_4_1_4 0
B_3_2_3_4_2_1 0
B_3_2_3_4_2_2 0
B_3_2_3_4_2_3 0
B_3_2_3_4_2_4 0
B_3_2_3_5_1_1 0
B_3_2_3_5_1_2 0
B_3_2_3_5_1_3 1
B_3_2_3_5_2_1 0
B_3_2_3_5_2_2 0
B_3_2_4_1_1_1 0
B_3_2_4_1_1_2 0
B_3_2_4_1_1_3 0
B_3_2_4_1_1_4 0
B_3_2_4_1_2_1 0
B_3_2_4_1_2_2 0
B_3_2_4_1_2_3 0
B_3_2_4_1_2_4 0
B_3_2_4_2_1_1 0
B_3_2_4_2_1_2 0
B_3_2_4_2_1_3 0
B_3_2_4_2_2_1 0
B_3_2_4_2_2_2 0
B_3_2_4_2_2_3 0
B_3_2_4_4_1_1 0
B_3_2_4_4_1_2 0
B_3_2_4_4_1_3 0
B_3_2_4_4_1_4 0
B_3_2_4_4_2_1 0
B_3_2_4_4_2_2 0
B_3_2_4_4_2_3 0
B_3_2_4_4_2_4 0
B_3_2_4_5_1_1 0
B_3_2_4_5_1_2 0
B_3_2_4_5_1_3 0
B_3_2_4_5_2_1 0
B_3_2_4_5_2_2 1
B_4_1_1_1_1_1 0
B_4_1_1_1_1_2 0
B_4_1_1_1_1_3 0
B_4_1_1_1_1_4 0
B_4_1_1_1_2_1 0
B_4_1_1_1_2_2 0
B_4_1_1_1_2_3 0
B_4_1_1_1_2_4 0
B_4_1_1_2_1_1 0
B_4_1_1_2_1_2 0
B_4_1_1_2_1_3 0
B_4_1_1_2_2_1 0
B_4_1_1_2_2_2 0
B_4_1_1_2_2_3 0
B_4_1_1_3_1_1 0
B_4_1_1_3_1_2 0
B_4_1_1_3_1_3 0
B_4_1_1_3_1_4 0
B_4_1_1_3_2_1 0
B_4_1_1_3_2_2 0
B_4_1_1_3_2_3 0
B_4_1_1_3_2_4 0
B_4_1_1_5_1_1 0
B_4_1_1_5_1_2 0
B_4_1_1_5_1_3 0
B_4_1_1_5_2_1 0
B_4_1_1_5_2_2 0
B_4_1_2_1_1_1 0
B_4_1_2_1_1_2 0
B_4_1_2_1_1_3 0
B_4_1_2_1_1_4 0
B_4_1_2_1_2_1 0
B_4_1_2_1_2_2 0
B_4_1_2_1_2_3 0
B_4_1_2_1_2_4 0
B_4_1_2_2_1_1 0
B_4_1_2_2_1_2 0
B_4_1_2_2_1_3 0
B_4_1_2_2_2_1 0
B_4_1_2_2_2_2 0
B_4_1_2_2_2_3 0
B_4_1_2_3_1_1 0
B_4_1_2_3_1_2 0
B_4_1_2_3_1_3 0
B_4_1_2_3_1_4 0
B_4_1_2_3_2_1 0
B_4_1_2_3_2_2 0
B_4_1_2_3_2_3 0
B_4_1_2_3_2_4 0
B_4_1_2_5_1_1 0
B_4_1_2_5_1_2 0
B_4_1_2_5_1_3 0
B_4_1_2_5_2_1 0
B_4_1_2_5_2_2 0
B_4_1_3_1_1_1 0
B_4_1_3_1_1_2 0
B_4_1_3_1_1_3 0
B_4_1_3_1_1_4 0
B_4_1_3_1_2_1 0
B_4_1_3_1_2_2 0
B_4_1_3_1_2_3 0
B_4_1_3_1_2_4 0
B_4_1_3_2_1_1 0
B_4_1_3_2_1_2 0
B_4_1_3_2_1_3 0
B_4_1_3_2_2_1 0
B_4_1_3_2_2_2 0
B_4_1_3_2_2_3 0
B_4_1_3_3_1_1 0
B_4_1_3_3_1_2 0
B_4_1_3_3_1_3 0
B_4_1_3_3_1_4 0
B_4_1_3_3_2_1 0
B_4_1_3_3_2_2 0
B_4_1_3_3_2_3 0
B_4_1_3_3_2_4 0
B_4_1_3_5_1_1 0
B_4_1_3_5_1_2 0
B_4_1_3_5_1_3 0
B_4_1_3_5_2_1 0
B_4_1_3_5_2_2 0
B_4_1_4_1_1_1 0
B_4_1_4_1_1_2 0
B_4_1_4_1_1_3 0
B_4_1_4_1_1_4 0
B_4_1_4_1_2_1 0
B_4_1_4_1_2_2 0
B_4_1_4_1_2_3 0
B_4_1_4_1_2_4 0
B_4_1_4_2_1_1 0
B_4_1_4_2_1_2 0
B_4_1_4_2_1_3 0
B_4_1_4_2_2_1 0
B_4_1_4_2_2_2 0
B_4_1_4_2_2_3 0
B_4_1_4_3_1_1 0
B_4_1_4_3_1_2 0
B_4_1_4_3_1_3 0
B_4_1_4_3_1_4 0
B_4_1_4_3_2_1 0
B_4_1_4_3_2_2 0
B_4_1_4_3_2_3 0
B_4_1_4_3_2_4 0
B_4_1_4_5_1_1 0
B_4_1_4_5_1_2 0
B_4_1_4_5_1_3 0
B_4_1_4_5_2_1 0
B_4_1_4_5_2_2 0
B_4_2_1_1_1_1 0
B_4_2_1_1_1_2 0
B_4_2_1_1_1_3 0
B_4_2_1_1_1_4 0
B_4_2_1_1_2_1 0
B_4_2_1_1_2_2 0
B_4_2_1_1_2_3 0
B_4_2_1_1_2_4 0
B_4_2_1_2_1_1 0
B_4_2_1_2_1_2 0
B_4_2_1_2_1_3 0
B_4_2_1_2_2_1 0
B_4_2_1_2_2_2 0
B_4_2_1_2_2_3 0
B_4_2_1_3_1_1 0
B_4_2_1_3_1_2 0
B_4_2_1_3_1_3 0
B_4_2_1_3_1_4 0
B_4_2_1_3_2_1 0
B_4_2_1_3_2_2 0
B_4_2_1_3_2_3 0
B_4_2_1_3_2_4 0
B_4_2_1_5_1_1 0
B_4_2_1_5_1_2 0
B_4_2_1_5_1_3 0
B_4_2_1_5_2_1 0
B_4_2_1_5_2_2 0
B_4_2_2_1_1_1 0
B_4_2_2_1_1_2 0
B_4_2_2_1_1_3 0
B_4_2_2_1_1_4 0
B_4_2_2_1_2_1 0
B_4_2_2_1_2_2 0
B_4_2_2_1_2_3 0
B_4_2_2_1_2_4 0
B_4_2_2_2_1_1 0
B_4_2_2_2_1_2 0
B_4_2_2_2_1_3 0
B_4_2_2_2_2_1 0
B_4_2_2_2_2_2 0
B_4_2_2_2_2_3 0
B_4_2_2_3_1_1 0
B_4_2_2_3_1_2 0
B_4_2_2_3_1_3 0
B_4_2_2_3_1_4 0
B_4_2_2_3_2_1 0
B_4_2_2_3_2_2 0
B_4_2_2_3_2_3 0
B_4_2_2_3_2_4 0
B_4_2_2_5_1_1 0
B_4_2_2_5_1_2 0
B_4_2_2_5_1_3 0
B_4_2_2_5_2_1 0
B_4_2_2_5_2_2 1
B_4_2_3_1_1_1 0
B_4_2_3_1_1_2 0
B_4_2_3_1_1_3 0
B_4_2_3_1_1_4 0
B_4_2_3_1_2_1 0
B_4_2_3_1_2_2 0
B_4_2_3_1_2_3 0
B_4_2_3_1_2_4 0
B_4_2_3_2_1_1 0
B_4_2_3_2_1_2 0
B_4_2_3_2_1_3 0
B_4_2_3_2_2_1 0
B_4_2_3_2_2_2 0
B_4_2_3_2_2_3 0
B_4_2_3_3_1_1 0
B_4_2_3_3_1_2 0
B_4_2_3_3_1_3 0
B_4_2_3_3_1_4 0
B_4_2_3_3_2_1 0
B_4_2_3_3_2_2 0
B_4_2_3_3_2_3 0
B_4_2_3_3_2_4 0
B_4_2_3_5_1_1 0
B_4_2_3_5_1_2 0
B_4_2_3_5_1_3 0
B_4_2_3_5_2_1 0
B_4_2_3_5_2_2 0
B_4_2_4_1_1_1 0
B_4_2_4_1_1_2 0
B_4_2_4_1_1_3 0
B_4_2_4_1_1_4 0
B_4_2_4_1_2_1 0
B_4_2_4_1_2_2 0
B_4_2_4_1_2_3 0
B_4_2_4_1_2_4 0
B_4_2_4_2_1_1 0
B_4_2_4_2_1_2 0
B_4_2_4_2_1_3 0
B_4_2_4_2_2_1 0
B_4_2_4_2_2_2 0
B_4_2_4_2_2_3 0
B_4_2_4_3_1_1 0
B_4_2_4_3_1_2 0
B_4_2_4_3_1_3 0
B_4_2_4_3_1_4 0
B_4_2_4_3_2_1 0
B_4_2_4_3_2_2 0
B_4_2_4_3_2_3 0
B_4_2_4_3_2_4 0
B_4_2_4_5_1_1 0
B_4_2_4_5_1_2 0
B_4_2_4_5_1_3 0
B_4_2_4_5_2_1 0
B_4_2_4_5_2_2 0
B_5_1_1_1_1_1 0
B_5_1_1_1_1_2 0
B_5_1_1_1_1_3 0
B_5_1_1_1_1_4 0
B_5_1_1_1_2_1 0
B_5_1_1_1_2_2 0
B_5_1_1_1_2_3 0
B_5_1_1_1_2_4 0
B_5_1_1_2_1_1 0
B_5_1_1_2_1_2 0
B_5_1_1_2_1_3 0
B_5_1_1_2_2_1 0
B_5_1_1_2_2_2 0
B_5_1_1_2_2_3 0
B_5_1_1_3_1_1 0
B_5_1_1_3_1_2 0
B_5_1_1_3_1_3 0
B_5_1_1_3_1_4 0
B_5_1_1_3_2_1 0
B_5_1_1_3_2_2 0
B_5_1_1_3_2_3 0
B_5_1_1_3_2_4 0
B_5_1_1_4_1_1 0
B_5_1_1_4_1_2 0
B_5_1_1_4_1_3 0
B_5_1_1_4_1_4 0
B_5_1_1_4_2_1 0
B_5_1_1_4_2_2 0
B_5_1_1_4_2_3 0
B_5_1_1_4_2_4 0
B_5_1_2_1_1_1 0
B_5_1_2_1_1_2 0
B_5_1_2_1_1_3 0
B_5_1_2_1_1_4 0
B_5_1_2_1_2_1 0
B_5_1_2_1_2_2 0
B_5_1_2_1_2_3 0
B_5_1_2_1_2_4 0
B_5_1_2_2_1_1 0
B_5_1_2_2_1_2 0
B_5_1_2_2_1_3 0
B_5_1_2_2_2_1 0
B_5_1_2_2_2_2 0
B_5_1_2_2_2_3 0
B_5_1_2_3_1_1 0
B_5_1_2_3_1_2 0
B_5_1_2_3_1_3 0
B_5_1_2_3_1_4 0
B_5_1_2_3_2_1 0
B_5_1_2_3_2_2 0
B_5_1_2_3_2_3 0
B_5_1_2_3_2_4 0
B_5_1_2_4_1_1 0
B_5_1_2_4_1_2 0
B_5_1_2_4_1_3 0
B_5_1_2_4_1_4 0
B_5_1_2_4_2_1 0
B_5_1_2_4_2_2 0
B_5_1_2_4_2_3 0
B_5_1_2_4_2_4 0
B_5_1_3_1_1_1 0
B_5_1_3_1_1_2 0
B_5_1_3_1_1_3 0
B_5_1_3_1_1_4 0
B_5_1_3_1_2_1 0
B_5_1_3_1_2_2 0
B_5_1_3_1_2_3 0
B_5_1_3_1_2_4 0
B_5_1_3_2_1_1 0
B_5_1_3_2_1_2 0
B_5_1_3_2_1_3 0
B_5_1_3_2_2_1 0
B_5_1_3_2_2_2 0
B_5_1_3_2_2_3 0
B_5_1_3_3_1_1 0
B_5_1_3_3_1_2 0
B_5_1_3_3_1_3 0
B_5_1_3_3_1_4 0
B_5_1_3_3_2_1 0
B_5_1_3_3_2_2 0
B_5_1_3_3_2_3 0
B_5_1_3_3_2_4 0
B_5_1_3_4_1_1 0
B_5_1_3_4_1_2 0
B_5_1_3_4_1_3 0
B_5_1_3_4_1_4 0
B_5_1_3_4_2_1 0
B_5_1_3_4_2_2 0
B_5_1_3_4_2_3 0
B_5_1_3_4_2_4 0
B_5_2_1_1_1_1 0
B_5_2_1_1_1_2 0
B_5_2_1_1_1_3 0
B_5_2_1_1_1_4 0
B_5_2_1_1_2_1 0
B_5_2_1_1_2_2 0
B_5_2_1_1_2_3 0
B_5_2_1_1_2_4 0
B_5_2_1_2_1_1 0
B_5_2_1_2_1_2 0
B_5_2_1_2_1_3 0
B_5_2_1_2_2_1 0
B_5_2_1_2_2_2 0
B_5_2_1_2_2_3 0
B_5_2_1_3_1_1 0
B_5_2_1_3_1_2 0
B_5_2_1_3_1_3 0
B_5_2_1_3_1_4 0
B_5_2_1_3_2_1 0
B_5_2_1_3_2_2 0
B_5_2_1_3_2_3 0
B_5_2_1_3_2_4 0
B_5_2_1_4_1_1 0
B_5_2_1_4_1_2 0
B_5_2_1_4_1_3 0
B_5_2_1_4_1_4 0
B_5_2_1_4_2_1 0
B_5_2_1_4_2_2 0
B_5_2_1_4_2_3 0
B_5_2_1_4_2_4 0
B_5_2_2_1_1_1 0
B_5_2_2_1_1_2 0
B_5_2_2_1_1_3 0
B_5_2_2_1_1_4 0
B_5_2_2_1_2_1 0
B_5_2_2_1_2_2 0
B_5_2_2_1_2_3 0
B_5_2_2_1_2_4 0
B_5_2_2_2_1_1 0
B_5_2_2_2_1_2 0
B_5_2_2_2_1_3 0
B_5_2_2_2_2_1 0
B_5_2_2_2_2_2 0
B_5_2_2_2_2_3 0
B_5_2_2_3_1_1 0
B_5_2_2_3_1_2 0
B_5_2_2_3_1_3 0
B_5_2_2_3_1_4 0
B_5_2_2_3_2_1 0
B_5_2_2_3_2_2 0
B_5_2_2_3_2_3 0
B_5_2_2_3_2_4 0
B_5_2_2_4_1_1 0
B_5_2_2_4_1_2 0
B_5_2_2_4_1_3 0
B_5_2_2_4_1_4 0
B_5_2_2_4_2_1 0
B_5_2_2_4_2_2 0
B_5_2_2_4_2_3 0
B_5_2_2_4_2_4 0
